30	100	100	100
83	72	22
80	99	31
68	70	6
84	66	38
93	90	4
85	75	26
81	89	34
76	76	5
77	72	2
73	79	23
99	75	41
94	94	2
72	85	24
99	84	47
81	67	3
99	96	41
74	87	38
71	92	13
81	76	37
90	69	13
71	98	28
77	91	3
82	87	3
92	75	43
74	84	30
69	99	45
71	98	23
99	69	6
73	96	31
81	86	31
